c Generated map
c Size: 13 * 13, weights in range: 1 to 10, walls: True, with ratio 0.2
c dim 1 of 3
c
p sp 169 195
c graph contains 169 nodes and 195 arcs
c
a 1 2 10
a 2 1 10
a 2 15 7
a 15 2 7
a 2 3 9
a 3 2 9
a 3 16 7
a 16 3 7
a 3 4 6
a 4 3 6
a 4 17 9
a 17 4 9
a 6 19 4
a 19 6 4
a 6 7 8
a 7 6 8
a 7 20 8
a 20 7 8
a 7 8 8
a 8 7 8
a 8 21 4
a 21 8 4
a 8 9 9
a 9 8 9
a 9 22 6
a 22 9 6
a 9 10 10
a 10 9 10
a 10 23 1
a 23 10 1
a 10 11 9
a 11 10 9
a 11 24 5
a 24 11 5
a 15 28 5
a 28 15 5
a 15 16 10
a 16 15 10
a 16 17 7
a 17 16 7
a 17 30 1
a 30 17 1
a 19 32 6
a 32 19 6
a 19 20 10
a 20 19 10
a 20 33 8
a 33 20 8
a 20 21 4
a 21 20 4
a 21 34 4
a 34 21 4
a 21 22 7
a 22 21 7
a 22 35 3
a 35 22 3
a 22 23 7
a 23 22 7
a 23 24 10
a 24 23 10
a 24 37 3
a 37 24 3
a 24 25 1
a 25 24 1
a 28 41 5
a 41 28 5
a 30 43 2
a 43 30 2
a 32 45 6
a 45 32 6
a 32 33 2
a 33 32 2
a 33 46 5
a 46 33 5
a 33 34 6
a 34 33 6
a 34 35 10
a 35 34 10
a 35 48 8
a 48 35 8
a 39 52 3
a 52 39 3
a 40 53 9
a 53 40 9
a 40 41 9
a 41 40 9
a 41 54 7
a 54 41 7
a 41 42 5
a 42 41 5
a 42 55 1
a 55 42 1
a 42 43 4
a 43 42 4
a 43 56 5
a 56 43 5
a 45 58 7
a 58 45 7
a 45 46 2
a 46 45 2
a 46 59 7
a 59 46 7
a 48 61 3
a 61 48 3
a 48 49 9
a 49 48 9
a 49 62 5
a 62 49 5
a 51 64 6
a 64 51 6
a 51 52 2
a 52 51 2
a 52 65 8
a 65 52 8
a 53 54 5
a 54 53 5
a 54 67 3
a 67 54 3
a 54 55 8
a 55 54 8
a 55 56 7
a 56 55 7
a 58 71 10
a 71 58 10
a 58 59 9
a 59 58 9
a 59 72 2
a 72 59 2
a 61 74 10
a 74 61 10
a 61 62 7
a 62 61 7
a 62 75 4
a 75 62 4
a 62 63 8
a 63 62 8
a 63 76 9
a 76 63 9
a 63 64 1
a 64 63 1
a 64 77 9
a 77 64 9
a 64 65 5
a 65 64 5
a 65 78 6
a 78 65 6
a 67 80 5
a 80 67 5
a 70 71 7
a 71 70 7
a 71 84 3
a 84 71 3
a 71 72 9
a 72 71 9
a 72 85 10
a 85 72 10
a 72 73 7
a 73 72 7
a 73 86 4
a 86 73 4
a 73 74 9
a 74 73 9
a 74 87 3
a 87 74 3
a 74 75 7
a 75 74 7
a 75 76 7
a 76 75 7
a 76 89 1
a 89 76 1
a 76 77 6
a 77 76 6
a 77 90 8
a 90 77 8
a 77 78 9
a 78 77 9
a 78 91 10
a 91 78 10
a 79 80 3
a 80 79 3
a 80 93 7
a 93 80 7
a 82 95 2
a 95 82 2
a 84 97 6
a 97 84 6
a 84 85 9
a 85 84 9
a 85 98 7
a 98 85 7
a 85 86 7
a 86 85 7
a 86 99 2
a 99 86 2
a 86 87 2
a 87 86 2
a 89 102 2
a 102 89 2
a 89 90 10
a 90 89 10
a 90 103 2
a 103 90 2
a 90 91 5
a 91 90 5
a 93 106 4
a 106 93 4
a 93 94 5
a 94 93 5
a 94 107 4
a 107 94 4
a 94 95 9
a 95 94 9
a 95 108 7
a 108 95 7
a 95 96 10
a 96 95 10
a 96 109 2
a 109 96 2
a 96 97 9
a 97 96 9
a 97 110 7
a 110 97 7
a 97 98 10
a 98 97 10
a 98 111 3
a 111 98 3
a 98 99 7
a 99 98 7
a 99 112 8
a 112 99 8
a 101 114 8
a 114 101 8
a 101 102 9
a 102 101 9
a 102 115 8
a 115 102 8
a 102 103 8
a 103 102 8
a 103 116 10
a 116 103 10
a 105 118 6
a 118 105 6
a 105 106 1
a 106 105 1
a 106 107 2
a 107 106 2
a 107 120 7
a 120 107 7
a 107 108 1
a 108 107 1
a 108 121 10
a 121 108 10
a 108 109 2
a 109 108 2
a 109 122 9
a 122 109 9
a 109 110 7
a 110 109 7
a 110 123 10
a 123 110 10
a 110 111 6
a 111 110 6
a 111 112 7
a 112 111 7
a 112 113 2
a 113 112 2
a 113 114 9
a 114 113 9
a 114 127 3
a 127 114 3
a 114 115 5
a 115 114 5
a 115 128 4
a 128 115 4
a 115 116 1
a 116 115 1
a 116 117 5
a 117 116 5
a 117 130 10
a 130 117 10
a 118 131 4
a 131 118 4
a 120 133 10
a 133 120 10
a 120 121 5
a 121 120 5
a 121 122 4
a 122 121 4
a 122 135 4
a 135 122 4
a 122 123 3
a 123 122 3
a 123 136 10
a 136 123 10
a 127 140 7
a 140 127 7
a 127 128 8
a 128 127 8
a 130 143 7
a 143 130 7
a 131 144 6
a 144 131 6
a 131 132 10
a 132 131 10
a 132 145 9
a 145 132 9
a 132 133 10
a 133 132 10
a 135 148 1
a 148 135 1
a 135 136 8
a 136 135 8
a 136 149 9
a 149 136 9
a 136 137 1
a 137 136 1
a 137 150 10
a 150 137 10
a 137 138 5
a 138 137 5
a 138 151 3
a 151 138 3
a 138 139 8
a 139 138 8
a 139 152 2
a 152 139 2
a 139 140 8
a 140 139 8
a 140 153 3
a 153 140 3
a 142 143 3
a 143 142 3
a 143 156 7
a 156 143 7
a 144 157 5
a 157 144 5
a 144 145 3
a 145 144 3
a 145 158 8
a 158 145 8
a 147 160 8
a 160 147 8
a 147 148 1
a 148 147 1
a 148 161 7
a 161 148 7
a 148 149 9
a 149 148 9
a 149 162 5
a 162 149 5
a 149 150 10
a 150 149 10
a 150 163 8
a 163 150 8
a 150 151 3
a 151 150 3
a 151 152 8
a 152 151 8
a 152 165 3
a 165 152 3
a 152 153 6
a 153 152 6
a 153 166 2
a 166 153 2
a 153 154 7
a 154 153 7
a 154 167 5
a 167 154 5
a 156 169 8
a 169 156 8
a 157 158 2
a 158 157 2
a 158 159 6
a 159 158 6
a 159 160 5
a 160 159 5
a 160 161 1
a 161 160 1
a 161 162 10
a 162 161 10
a 162 163 3
a 163 162 3
a 165 166 9
a 166 165 9
a 166 167 9
a 167 166 9
a 167 168 9
a 168 167 9
a 168 169 10
a 169 168 10
